159 64 173 44 165 32 67 13 186 188 142 63 149 58 84 17 81 182 103 105 114 11 27 150 55 94 147 130 162 25 86 177 54 112 9 181 20 46 132 163 113 24 19 141 8 101 115 5 39 82 2 176 4 117 144 135 116 91 140 47 1 143 29 99 118 50 191 18 195 36 34 61 123 52 59 43 154 3 92 121 122 187 70 42 76 15 151 62 153 53 90 38 72 14 68 171 136 83 40 146 78 180 12 178 87 164 23 26 179 119 137 51 7 65 37 185 148 33 80 129 174 0 155 199 125 49 168 161 31 104 96 166 93 16 89 139 138 97 169 48 69 152 88 10 167 109 22 41 172 184 21 192 110 102 57 127 28 190 196 198 107 128 35 175 158 74 66 131 197 6 111 73 194 100 189 120 45 145 124 108 60 170 126 75 160 134 71 56 30 98 77 193 79 156 133 106 183 157 95 85